Maximize

29.5 b0 + 15.5 b1 + 48.5 b2 + 7 b3 + 15 b4.v0 + 15 b4.v1 + 10 b5 + 19.5 b6.v0 + 19.5 b6.v1 + 19.5 b6.v2 + 19.5 b6.v3 + 15.5 b6.v4 + 15.5 b6.v5 + 15.5 b6.v6 + 33.0 b7 + 6 b8 + 18.5 b9 + 20.5 b10 + 22.5 b11 + 49.5 b12 + 22.5 b13 + 9 b14 + 18.5 b15.v0 + 18.5 b15.v1 + 19.5 b16 + 8 b17 + 18 b18.v0 + 18 b18.v1 + 10 b19 + 14 b20 + 18.5 b21.v0 + 18.5 b21.v1 + 19.5 b22 + 20.5 b23 + 18 b24.v0 + 18 b24.v1 + 10 b25 + 14 b26 + 18.5 b27.v0 + 18.5 b27.v1 + 13.5 b28 + 12.5 x4_0.m + 12.5 x5_0.m + 12.5 x14_0.m + 12.5 x18_0.m + 12.5 x20_0.m + 12.5 x24_0.m + 12.5 x26_0.m + 12.5 dr4_0.m + 12.5 dr5_0.m + 12.5 dr14_0.m + 12.5 dr18_0.m + 12.5 dr19_0.m + 12.5 dr20_0.m + 12.5 dr20_1.m + 12.5 dr24_0.m + 12.5 dr25_0.m + 12.5 dr26_0.m + 12.5 dr26_1.m


Subject to

\ === tcfg constraints ===
dSta_0 = 1
b0 - dSta_0 = 0
b0 - d0_1 = 0
b1 - d0_1 = 0
b1 - d1_2 = 0
b2 - d1_2 = 0
b2 - d2_16 - d2_3 = 0
b3 - d2_3 = 0
b3 - d3_15 - d3_4 = 0
b4 - d14_4 - d3_4 = 0
b4 - d4_14 - d4_5 = 0
b5 - d4_5 = 0
b5 - d5_6 = 0
b6 - d15_6 - d21_6 - d27_6 - d28_6 - d5_6 - d19_6 - d25_6 = 0
b6 - d6_7 = 0
b7 - d6_7 = 0
b7 - d7_12 - d7_8 = 0
b8 - d7_8 = 0
b8 - d8_9 = 0
b9 - d8_9 = 0
b9 - d9_10 = 0
b10 - d9_10 = 0
b10 - d10_11 = 0
b11 - d10_11 = 0
b12 - d7_12 = 0
b12 - d12_13 = 0
b13 - d12_13 = 0
b14 - d4_14 = 0
b14 - d14_4 - d14_15 = 0
b15 - d14_15 - d3_15 = 0
b15 - d15_6 = 0
b16 - d2_16 = 0
b16 - d16_22 - d16_17 = 0
b17 - d16_17 = 0
b17 - d17_21 - d17_18 = 0
b18 - d20_18 - d17_18 = 0
b18 - d18_20 - d18_19 = 0
b19 - d18_19 = 0
b19 - d19_6 = 0
b20 - d18_20 = 0
b20 - d20_18 - d20_21 = 0
b21 - d20_21 - d17_21 = 0
b21 - d21_6 = 0
b22 - d16_22 = 0
b22 - d22_28 - d22_23 = 0
b23 - d22_23 = 0
b23 - d23_27 - d23_24 = 0
b24 - d26_24 - d23_24 = 0
b24 - d24_26 - d24_25 = 0
b25 - d24_25 = 0
b25 - d25_6 = 0
b26 - d24_26 = 0
b26 - d26_24 - d26_27 = 0
b27 - d26_27 - d23_27 = 0
b27 - d27_6 = 0
b28 - d22_28 = 0
b28 - d28_6 = 0


\ === header constraints ===
b4 - 6 d3_4 <= 0
b18 - 6 d17_18 <= 0
b24 - 6 d23_24 <= 0


\ === context constraints ===
b4 - b4.v0 - b4.v1 = 0
b4.v0 - d14_4 = 0
b4.v1 - d3_4 = 0
b6 - b6.v0 - b6.v1 - b6.v2 - b6.v3 - b6.v4 - b6.v5 - b6.v6 = 0
b6.v0 - d15_6 = 0
b6.v1 - d21_6 = 0
b6.v2 - d27_6 = 0
b6.v3 - d28_6 = 0
b6.v4 - d5_6 = 0
b6.v5 - d19_6 = 0
b6.v6 - d25_6 = 0
b15 - b15.v0 - b15.v1 = 0
b15.v0 - d14_15 = 0
b15.v1 - d3_15 = 0
b18 - b18.v0 - b18.v1 = 0
b18.v0 - d20_18 = 0
b18.v1 - d17_18 = 0
b21 - b21.v0 - b21.v1 = 0
b21.v0 - d20_21 = 0
b21.v1 - d17_21 = 0
b24 - b24.v0 - b24.v1 = 0
b24.v0 - d26_24 = 0
b24.v1 - d23_24 = 0
b27 - b27.v0 - b27.v1 = 0
b27.v0 - d26_27 = 0
b27.v1 - d23_27 = 0


\ === inst cache constraints ===
b4 - x4_0.h - x4_0.m = 0
x4_0.m <= 1
b5 - x5_0.h - x5_0.m = 0
x5_0.m <= 1
b14 - x14_0.h - x14_0.m = 0
x14_0.m <= 1
b18 - x18_0.h - x18_0.m = 0
x18_0.m <= 1
b20 - x20_0.h - x20_0.m = 0
x20_0.m <= 1
b24 - x24_0.h - x24_0.m = 0
x24_0.m <= 1
b26 - x26_0.h - x26_0.m = 0
x26_0.m <= 1


\ === data cache constraints ===
b4 - dr4_0.h - dr4_0.m = 0
dr4_0.m <= 1
b5 - dr5_0.h - dr5_0.m = 0
dr5_0.m <= 1
b14 - dr14_0.h - dr14_0.m = 0
dr14_0.m <= 1
b18 - dr18_0.h - dr18_0.m = 0
dr18_0.m <= 1
b19 - dr19_0.h - dr19_0.m = 0
dr19_0.m <= 1
b20 - dr20_0.h - dr20_0.m = 0
dr20_0.m <= 1
b20 - dr20_1.h - dr20_1.m = 0
dr20_1.m <= 1
b24 - dr24_0.h - dr24_0.m = 0
dr24_0.m <= 1
b25 - dr25_0.h - dr25_0.m = 0
dr25_0.m <= 1
b26 - dr26_0.h - dr26_0.m = 0
dr26_0.m <= 1
b26 - dr26_1.h - dr26_1.m = 0
dr26_1.m <= 1


\ === infeasible path constraints ===
x0 <= 1
x1 <= 1
x2 <= 1
x0 + x1 + x2 <= 2
d27_6 - 99999 x0 <= 0
d6_7 - 99999 x1 <= 0
d7_12 - 99999 x2 <= 0


Generals
x0
x1
x2


b0
b1
b2
b3
b4
b4.v0
b4.v1
b5
b6
b6.v0
b6.v1
b6.v2
b6.v3
b6.v4
b6.v5
b6.v6
b7
b8
b9
b10
b11
b12
b13
b14
b15
b15.v0
b15.v1
b16
b17
b18
b18.v0
b18.v1
b19
b20
b21
b21.v0
b21.v1
b22
b23
b24
b24.v0
b24.v1
b25
b26
b27
b27.v0
b27.v1
b28
d0_1
d1_2
d2_3
d2_16
d3_4
d3_15
d4_5
d4_14
d5_6
d6_7
d7_8
d7_12
d8_9
d9_10
d10_11
d12_13
d14_4
d14_15
d15_6
d16_17
d16_22
d17_18
d17_21
d18_19
d18_20
d19_6
d20_18
d20_21
d21_6
d22_23
d22_28
d23_24
d23_27
d24_25
d24_26
d25_6
d26_24
d26_27
d27_6
d28_6
dSta_0
dr4_0.h
dr4_0.m
dr5_0.h
dr5_0.m
dr14_0.h
dr14_0.m
dr18_0.h
dr18_0.m
dr19_0.h
dr19_0.m
dr20_0.h
dr20_0.m
dr20_1.h
dr20_1.m
dr24_0.h
dr24_0.m
dr25_0.h
dr25_0.m
dr26_0.h
dr26_0.m
dr26_1.h
dr26_1.m
x4_0.h
x4_0.m
x5_0.h
x5_0.m
x14_0.h
x14_0.m
x18_0.h
x18_0.m
x20_0.h
x20_0.m
x24_0.h
x24_0.m
x26_0.h
x26_0.m


End
\ total cons: 148    total vars: 125